
Gurobi 10.0.1 (linux64) logging started Sun Nov 26 16:06:35 2023

Set parameter LogFile to value "ArtificialInstance/ExperimentV2/S3T4K3/AdRo/gurobiSpRo48.txt"
Gurobi Optimizer version 10.0.1 build v10.0.1rc0 (linux64)

CPU model: AMD EPYC 7H12 64-Core Processor, instruction set [SSE2|AVX|AVX2]
Thread count: 128 physical cores, 128 logical processors, using up to 32 threads

Academic license 656792 - for non-commercial use only - registered to b.___@student.vu.nl
Optimize a model with 17363 rows, 16345 columns and 63515 nonzeros
Model fingerprint: 0xd4068b65
Variable types: 1 continuous, 16344 integer (16344 binary)
Coefficient statistics:
  Matrix range     [1e+00, 4e+01]
  Objective range  [1e+00, 2e+01]
  Bounds range     [1e+00, 1e+00]
  RHS range        [1e+00, 1e+00]
Presolve removed 8006 rows and 7560 columns
Presolve time: 0.20s
Presolved: 9357 rows, 8785 columns, 34113 nonzeros
Variable types: 1 continuous, 8784 integer (8784 binary)
Found heuristic solution: objective 128.2311448

Root relaxation: objective 8.275433e+01, 2725 iterations, 0.12 seconds (0.09 work units)

    Nodes    |    Current Node    |     Objective Bounds      |     Work
 Expl Unexpl |  Obj  Depth IntInf | Incumbent    BestBd   Gap | It/Node Time

     0     0   82.75433    0   20  128.23114   82.75433  35.5%     -    0s
H    0     0                      82.7543344   82.75433  0.00%     -    0s
     0     0   82.75433    0   20   82.75433   82.75433  0.00%     -    0s

Explored 1 nodes (4892 simplex iterations) in 0.47 seconds (0.33 work units)
Thread count was 32 (of 128 available processors)

Solution count 2: 82.7543 128.231 

Optimal solution found (tolerance 1.00e-04)
Best objective 8.275433436730e+01, best bound 8.275433436730e+01, gap 0.0000%
